(set-logic QF_UF)
(declare-fun A0 () Bool)
(declare-fun A1 () Bool)
(declare-fun A2 () Bool)
(declare-fun A3 () Bool)
(declare-fun A4 () Bool)
(declare-fun A5 () Bool)
(declare-fun A6 () Bool)
(declare-fun A7 () Bool)
(declare-fun A8 () Bool)
(declare-fun A9 () Bool)
(declare-fun A10 () Bool)
(declare-fun A11 () Bool)
(declare-fun A12 () Bool)
(declare-fun A13 () Bool)
(declare-fun A14 () Bool)
(declare-fun A15 () Bool)
(declare-fun A16 () Bool)
(declare-fun A17 () Bool)
(declare-fun A18 () Bool)
(declare-fun A19 () Bool)
(declare-fun A20 () Bool)
(declare-fun A21 () Bool)
(declare-fun A22 () Bool)
(declare-fun A24 () Bool)
(declare-fun A25 () Bool)
(declare-fun A26 () Bool)
(declare-fun A27 () Bool)
(declare-fun A28 () Bool)
(declare-fun A29 () Bool)
(assert (let ((.def_0 (not A11))) (let ((.def_1 (and A6 .def_0))) (let ((.def_2 (not .def_1))) (let ((.def_3 (not A5))) (let ((.def_4 (and .def_3 A13))) (let ((.def_5 (not .def_4))) (let ((.def_6 (and .def_5 .def_2))) (let ((.def_7 (not A24))) (let ((.def_8 (not A3))) (let ((.def_9 (or .def_8 .def_7))) (let ((.def_10 (not A0))) (let ((.def_11 (and .def_10 A25))) (let ((.def_12 (or .def_11 .def_9))) (let ((.def_13 (and .def_12 .def_6))) (let ((.def_14 (not A19))) (let ((.def_15 (not A26))) (let ((.def_16 (or .def_15 .def_14))) (let ((.def_17 (not A17))) (let ((.def_18 (and .def_17 A20))) (let ((.def_19 (not .def_18))) (let ((.def_20 (or .def_19 .def_16))) (let ((.def_21 (not .def_20))) (let ((.def_22 (not A14))) (let ((.def_23 (or A28 .def_22))) (let ((.def_24 (not A22))) (let ((.def_25 (not A27))) (let ((.def_26 (and .def_25 .def_24))) (let ((.def_27 (not .def_26))) (let ((.def_28 (or .def_27 .def_23))) (let ((.def_29 (not .def_28))) (let ((.def_30 (= .def_29 .def_21))) (let ((.def_31 (not .def_30))) (let ((.def_32 (or .def_31 .def_13))) (let ((.def_33 (not A13))) (let ((.def_34 (or A15 .def_33))) (let ((.def_35 (not A9))) (let ((.def_36 (or .def_0 .def_35))) (let ((.def_37 (not .def_36))) (let ((.def_38 (or .def_37 .def_34))) (let ((.def_39 (not A18))) (let ((.def_40 (or A7 .def_39))) (let ((.def_41 (or A19 A3))) (let ((.def_42 (= .def_41 .def_40))) (let ((.def_43 (not .def_42))) (let ((.def_44 (or .def_43 .def_38))) (let ((.def_45 (not .def_44))) (let ((.def_46 (and A12 .def_10))) (let ((.def_47 (not .def_46))) (let ((.def_48 (not A8))) (let ((.def_49 (or A24 .def_48))) (let ((.def_50 (or .def_49 .def_47))) (let ((.def_51 (or A6 A25))) (let ((.def_52 (not .def_51))) (let ((.def_53 (and A13 A4))) (let ((.def_54 (or .def_53 .def_52))) (let ((.def_55 (or .def_54 .def_50))) (let ((.def_56 (or .def_55 .def_45))) (let ((.def_57 (not .def_56))) (let ((.def_58 (and .def_57 .def_32))) (let ((.def_59 (not A7))) (let ((.def_60 (and .def_59 .def_10))) (let ((.def_61 (not A10))) (let ((.def_62 (= .def_61 .def_8))) (let ((.def_63 (or .def_62 .def_60))) (let ((.def_64 (not .def_63))) (let ((.def_65 (or A1 A10))) (let ((.def_66 (or .def_48 A10))) (let ((.def_67 (or .def_66 .def_65))) (let ((.def_68 (and .def_67 .def_64))) (let ((.def_69 (and .def_24 .def_22))) (let ((.def_70 (not .def_69))) (let ((.def_71 (not A2))) (let ((.def_72 (and .def_71 A6))) (let ((.def_73 (and .def_72 .def_70))) (let ((.def_74 (not A20))) (let ((.def_75 (and .def_7 .def_74))) (let ((.def_76 (not .def_75))) (let ((.def_77 (not A21))) (let ((.def_78 (and .def_48 .def_77))) (let ((.def_79 (not .def_78))) (let ((.def_80 (or .def_79 .def_76))) (let ((.def_81 (and .def_80 .def_73))) (let ((.def_82 (or .def_81 .def_68))) (let ((.def_83 (and A17 A9))) (let ((.def_84 (not A29))) (let ((.def_85 (or .def_7 .def_84))) (let ((.def_86 (= .def_85 .def_83))) (let ((.def_87 (not .def_86))) (let ((.def_88 (= A1 A18))) (let ((.def_89 (and .def_0 .def_17))) (let ((.def_90 (and .def_89 .def_88))) (let ((.def_91 (= .def_90 .def_87))) (let ((.def_92 (not .def_91))) (let ((.def_93 (or A29 A17))) (let ((.def_94 (or A16 .def_17))) (let ((.def_95 (not .def_94))) (let ((.def_96 (or .def_95 .def_93))) (let ((.def_97 (not .def_96))) (let ((.def_98 (and A14 .def_48))) (let ((.def_99 (or .def_15 A8))) (let ((.def_100 (and .def_99 .def_98))) (let ((.def_101 (not .def_100))) (let ((.def_102 (or .def_101 .def_97))) (let ((.def_103 (and .def_102 .def_92))) (let ((.def_104 (or .def_103 .def_82))) (let ((.def_105 (and .def_104 .def_58))) .def_105)))))))))))))))))))))))))))))))))))))))))))))))))))))))))))))))))))))))))))))))))))))))))))))))))))))))))))
(check-sat)
